5
25
1
6
1 36 0
9
9.6
4 8 1 3
5 4 1 3
4 8 1 5
5 4 1 5
4 8 1 7
5 4 1 7
4 8 1 9
5 4 1 9
4 8 0
1
6
1 14 0
7
9.6
4 4 1 3
5 2 1 3
4 4 1 5
5 2 1 5
4 4 1 7
5 2 1 7
4 4 0
1
20
1 28 0
7
32
4 8 1 3
5 4 1 3
4 8 1 5
5 4 1 5
4 8 1 7
5 4 1 7
4 8 0
1
6
1 18 0
9
9.6
4 4 1 3
5 2 1 3
4 4 1 5
5 2 1 5
4 4 1 7
5 2 1 7
4 4 1 9
5 2 1 9
4 4 0
1
9
1 16 0
8
14.4
4 4 1 3
5 2 1 3
4 4 1 5
5 2 1 5
4 4 1 7
5 2 1 7
4 4 1 8
5 2 0
1
10
1 18 0
6
16
4 6 1 3
5 3 1 3
4 6 1 5
5 3 1 5
4 6 1 6
5 3 0
1
13
1 16 0
4
20.8
4 8 1 3
5 4 1 3
4 8 1 4
5 4 0
1
9
1 44 0
11
14.4
4 8 1 3
5 4 1 3
4 8 1 5
5 4 1 5
4 8 1 7
5 4 1 7
4 8 1 9
5 4 1 9
4 8 1 11
5 4 1 11
4 8 0
1
20
1 15 0
3
32
4 10 1 3
5 5 1 3
4 10 0
1
18
1 16 0
4
28.8
4 8 1 3
5 4 1 3
4 8 1 4
5 4 0
1
6
1 8 0
8
9.6
4 2 1 3
5 1 1 3
4 2 1 5
5 1 1 5
4 2 1 7
5 1 1 7
4 2 1 8
5 1 0
1
1
1 10 0
10
1.6
4 2 1 3
5 1 1 3
4 2 1 5
5 1 1 5
4 2 1 7
5 1 1 7
4 2 1 9
5 1 1 9
4 2 1 10
5 1 0
1
8
1 13 0
